102 365
7 9 
7 9 
10 14 
10 14 
10 14 
15 14 
15 14 
15 14 
14 18 
14 18 
13 15 
13 15 
31 23 
31 23 
31 23 
30 21 
30 21 
29 19 
29 19 
29 19 
29 19 
29 19 
28 18 
28 18 
28 18 
28 18 
27 15 
27 15 
27 15 
27 15 
27 15 
27 15 
26 26 
26 26 
25 25 
24 14 
24 14 
24 14 
33 13 
33 13 
33 13 
22 12 
22 12 
18 12 
18 12 
18 12 
10 9 
10 9 
8 14 
8 14 
15 4 
15 4 
15 4 
15 4 
13 5 
13 5 
6 4 
6 4 
6 4 
5 6 
5 10 
5 10 
5 10 
5 10 
5 10 
4 9 
4 9 
4 9 
4 9 
4 9 
4 9 
4 9 
4 9 
4 9 
8 9 
8 9 
8 9 
8 9 
8 9 
8 9 
8 9 
8 9 
6 14 
6 14 
6 14 
6 14 
6 14 
6 7 
6 7 
6 7 
6 3 
6 3 
12 3 
12 3 
12 3 
12 3 
12 3 
12 6 
12 6 
12 6 
12 6 
12 6 
